0 436
1 430
2 426
5 414
8 408
10 400
11 372
15 356
17 344
22 340
26 322
29 316
31 314
32 310
35 298
40 294
41 282
48 278
49 274
58 240
77 238
84 236
106 232
125 228
144 226
148 218
185 212
238 196
242 192
309 180
317 172
320 170
414 162
453 160
575 156
679 152
9778 146
9987 142
